\ This file has been generated by DOcplex
\ ENCODING=ISO-8859-1
\Problem name: random_problem.lp

Minimize
 obj: - 0.019961421016 x0 - 0.009980710508 x1 - 0.004990355254 x2
      + 0.016731738444 x3 + 0.008365869222 x4 + 0.004182934611 x5 + [
      0.003877604662 x0^2 + 0.003877604662 x0*x1 + 0.001938802331 x0*x2
      + 0.002711163617 x0*x3 + 0.001355581808 x0*x4 + 0.000677790904 x0*x5
      + 0.000969401165 x1^2 + 0.000969401165 x1*x2 + 0.001355581808 x1*x3
      + 0.000677790904 x1*x4 + 0.000338895452 x1*x5 + 0.000242350291 x2^2
      + 0.000677790904 x2*x3 + 0.000338895452 x2*x4 + 0.000169447726 x2*x5
      + 0.010151453344 x3^2 + 0.010151453344 x3*x4 + 0.005075726672 x3*x5
      + 0.002537863336 x4^2 + 0.002537863336 x4*x5 + 0.000634465834 x5^2 ]/2
Subject To
 c0: 4 x0 + 2 x1 + x2 + 4 x3 + 2 x4 + x5 = 7

Bounds
 0 <= x0 <= 1
 0 <= x1 <= 1
 0 <= x2 <= 1
 0 <= x3 <= 1
 0 <= x4 <= 1
 0 <= x5 <= 1

Binaries
 x0 x1 x2 x3 x4 x5
End
